# Solution for model count
# Objective value = 9
z#1 0
z#2 0
z#3 1
z#4 0
z#5 0
z#6 1
z#7 0
z#8 1
z#9 0
z#10 0
z#11 1
z#12 1
z#13 0
z#14 1
z#15 1
z#16 0
z#17 0
z#18 1
z#19 1
z#20 0
z#21 0
z#22 0
z#23 0
z#24 0
x#24 0
x#23 0
x#22 0
x#21 0
x#20 0
x#19 569
x#18 44
x#17 0
x#16 0
x#15 765
x#14 313
x#13 0
x#12 106
x#11 2720
x#10 0
x#9 0
x#8 1536
x#7 0
x#6 666
x#5 0
x#4 0
x#3 3281
x#2 0
x#1 0
